gen cost
0 1476
1 1406
2 1406
3 1406
4 1390
5 1374
6 1374
7 1341
8 1341
9 1320
10 1269
11 1269
12 1250
13 1221
14 1221
15 1221
16 1221
17 1221
18 1221
19 1221
20 1221
21 1221
22 1221
23 1221
24 1221
25 1198
26 1198
27 1198
28 1183
29 1169
30 1169
31 1169
32 1168
33 1152
34 1152
35 1141
36 1138
37 1138
38 1138
39 1099
40 1099
41 1099
42 1099
43 1099
44 1099
45 1099
46 1098
47 1085
48 1085
49 1085
